CMPL model generation - running

CMPL version: 1.11.0
Authors: Thomas Schleiff, Mike Steglich
Distributed under the GPLv3 

create model instance ...
write model instance ...
CMPL model generation - finished

Solver - running


Welcome to IBM(R) ILOG(R) CPLEX(R) Interactive Optimizer 12.7.1.0
  with Simplex, Mixed Integer & Barrier Optimizers
5725-A06 5725-A29 5724-Y48 5724-Y49 5724-Y54 5724-Y55 5655-Y21
Copyright IBM Corp. 1988, 2017.  All Rights Reserved.

Type 'help' for a list of available commands.
Type 'help' followed by a command name for more
information on commands.

CPLEX> Specified objective sense: MINIMIZE
Selected objective  name:  line[1]
Selected RHS        name:  RHS
Selected bound      name:  BOUND
Problem '/tmp/cmpl.T23669.mps' read.
Read time = 0.05 sec. (8.17 ticks)
CPLEX> CPXPARAM_Read_APIEncoding                        "UTF-8"
Tried aggregator 3 times.
MIP Presolve eliminated 19285 rows and 30788 columns.
MIP Presolve modified 340 coefficients.
Aggregator did 595 substitutions.
Reduced MIP has 2475 rows, 3210 columns, and 9380 nonzeros.
Reduced MIP has 3042 binaries, 0 generals, 0 SOSs, and 0 indicators.
Presolve time = 0.05 sec. (41.71 ticks)
Found incumbent of value 459.429715 after 0.08 sec. (58.54 ticks)
Probing fixed 5 vars, tightened 0 bounds.
Probing time = 0.01 sec. (4.13 ticks)
Tried aggregator 1 time.
MIP Presolve eliminated 0 rows and 5 columns.
MIP Presolve modified 19 coefficients.
Reduced MIP has 2475 rows, 3205 columns, and 9370 nonzeros.
Reduced MIP has 3205 binaries, 0 generals, 0 SOSs, and 0 indicators.
Presolve time = 0.01 sec. (8.02 ticks)
Probing time = 0.01 sec. (2.66 ticks)
Clique table members: 5803.
MIP emphasis: balance optimality and feasibility.
MIP search method: dynamic search.
Parallel mode: none, using 1 thread.
Root relaxation solution time = 0.00 sec. (4.37 ticks)

        Nodes                                         Cuts/
   Node  Left     Objective  IInf  Best Integer    Best Bound    ItCnt     Gap

*     0+    0                          459.4297      -37.5931           108.18%
      0     0       63.7680    17      459.4297       63.7680       93   86.12%
*     0+    0                           83.4583       63.7680            23.59%
*     0+    0                           64.2537       63.7680             0.76%
      0     0       64.1771     1       64.2537      Cuts: 20       99    0.12%
*     0+    0                           64.1771       64.1771             0.00%
      0     0        cutoff             64.1771       64.1771       99    0.00%
Elapsed time = 0.14 sec. (98.74 ticks, tree = 0.01 MB, solutions = 4)

Clique cuts applied:  5
Cover cuts applied:  10
Gomory fractional cuts applied:  5

Root node processing (before b&c):
  Real time             =    0.14 sec. (100.45 ticks)
Sequential b&c:
  Real time             =    0.00 sec. (0.00 ticks)
                          ------------
Total (root+branch&cut) =    0.14 sec. (100.45 ticks)

Solution pool: 4 solutions saved.

MIP - Integer optimal solution:  Objective =  6.4177143000e+01
Solution time =    0.14 sec.  Iterations = 99  Nodes = 0
Deterministic time = 100.55 ticks  (704.59 ticks/sec)

CPLEX> Incumbent solution written to file '/tmp/cmpl.T23669.gsol'.
CPLEX> 
CMPL: Time used for model generation: 1 seconds
CMPL: Time used for solving the model: 1 seconds


Solution written to ASCII file: results/output_generated_conf_0.2/2015-12-07-4/fair-nonlinear.sol

Solver - finished
